db/data/13998325461777341272647026131656311997.z3.out
sat
-------------------
65.470728649
